<number of tasks>
50

<cycle time>
1000

<order strength>
0.595


<task times>
1 268
2 565
3 214
4 128
5 301
6 146
7 198
8 274
9 187
10 510
11 113
12 47
13 191
14 297
15 425
16 475
17 165
18 111
19 253
20 387
21 503
22 62
23 198
24 43
25 387
26 74
27 339
28 191
29 130
30 96
31 110
32 135
33 165
34 311
35 297
36 515
37 131
38 583
39 119
40 40
41 208
42 490
43 70
44 260
45 544
46 230
47 137
48 116
49 473
50 323

<precedence relations>
1,7
2,5
2,6
2,8
3,4
3,17
3,18
4,9
4,10
4,31
5,9
5,13
5,17
6,20
6,31
7,9
7,10
7,11
7,12
7,13
8,9
8,11
9,30
9,39
10,15
10,16
11,14
11,17
12,14
13,18
14,21
14,23
15,38
15,39
16,28
16,29
16,32
17,20
17,22
17,26
18,19
18,23
19,24
19,27
20,25
20,28
20,32
21,26
21,28
21,38
22,28
22,45
23,27
24,30
24,31
24,32
24,37
26,42
26,48
27,29
27,31
27,32
27,35
28,30
28,33
28,42
30,36
30,41
31,38
31,41
32,39
33,34
33,35
33,37
33,44
34,47
35,46
39,40
39,41
40,42
40,45
41,43
41,44
41,46
42,49
42,50
43,50
45,47
45,48
46,49

<end>
